
Gurobi 13.0.2 (win64) logging started Thu Jul 23 12:21:05 2026

Set parameter LogFile to value "E:\codes\ExactEBRP\results\gf_gurobi_performance_recovery_round29\development\V12_M1__c4_candidate__60s\external\native_logs\L2.0.0.1.0.0.1.0.0_terminal_mip.gurobi.log"
Gurobi Optimizer version 13.0.2 build v13.0.2rc1 (win64 - Windows 10.0 (19045.2))

CPU model: 12th Gen Intel(R) Core(TM) i7-12700KF, instruction set [SSE2|AVX|AVX2]
Thread count: 12 physical cores, 20 logical processors, using up to 1 threads

Non-default parameters:
TimeLimit  2.0439489199999997e+01
MIPGap  0
MIPGapAbs  0
LogToConsole  0
Threads  1

Optimize a model with 6225 rows, 648 columns and 59365 nonzeros (Min)
Model fingerprint: 0x2bec40f8
Model has 13 linear objective coefficients
Variable types: 347 continuous, 301 integer (253 binary)
Coefficient statistics:
  Matrix range     [2e-03, 1e+05]
  Objective range  [2e-03, 1e+00]
  Bounds range     [1e-01, 8e+01]
  RHS range        [3e-02, 1e+06]

Presolve removed 742 rows and 27 columns
Presolve time: 0.13s
Presolved: 5483 rows, 621 columns, 58747 nonzeros
Variable types: 321 continuous, 300 integer (252 binary)

Root relaxation: objective 3.222467e-01, 751 iterations, 0.06 seconds (0.20 work units)

    Nodes    |    Current Node    |     Objective Bounds      |     Work
 Expl Unexpl |  Obj  Depth IntInf | Incumbent    BestBd   Gap | It/Node Time

     0     0    0.32225    0  103          -    0.32225      -     -    0s
     0     0    0.33450    0   87          -    0.33450      -     -    0s
     0     0    0.33596    0   79          -    0.33596      -     -    0s
     0     0 infeasible    0               - infeasible      -     -    0s

Cutting planes:
  Learned: 1
  Gomory: 2
  Cover: 15
  Implied bound: 39
  Clique: 20
  MIR: 66
  StrongCG: 2
  Flow cover: 48
  GUB cover: 3
  Zero half: 4
  Network: 2
  RLT: 9
  Relax-and-lift: 10
  BQP: 6

Explored 1 nodes (1304 simplex iterations) in 0.78 seconds (1.05 work units)
Thread count was 1 (of 20 available processors)

Solution count 0

Model is infeasible
Best objective -, best bound -, gap -

User-callback calls 852, time in user-callback 0.00 sec
